
Gurobi 6.0.4 (win64) logging started 06/18/15 17:42:02

Read LP format model from file E:\Eigene Dateien\Downloads\Michi shit\VRPTWMS2\instances\mip\fuel\N8-C_DV100-C_SV25_F5_2_No_1.lp
Reading time = 0.00 seconds
(null): 417 rows, 200 columns, 1659 nonzeros
Optimize a model with 417 rows, 200 columns and 1659 nonzeros
Model has 512 quadratic constraints
Coefficient statistics:
  Matrix range    [1e+00, 1e+06]
  Objective range [8e+04, 1e+07]
  Bounds range    [1e+00, 1e+06]
  RHS range       [1e+00, 1e+06]
Presolve removed 46 rows and 22 columns
Presolve time: 0.03s
Presolved: 1171 rows, 578 columns, 6241 nonzeros
Variable types: 400 continuous, 178 integer (144 binary)
Found heuristic solution: objective 8.317200e+07

Root relaxation: objective 2.697108e+06, 128 iterations, 0.00 seconds

    Nodes    |    Current Node    |     Objective Bounds      |     Work
 Expl Unexpl |  Obj  Depth IntInf | Incumbent    BestBd   Gap | It/Node Time

     0     0 2697108.04    0   35 8.3172e+07 2697108.04  96.8%     -    0s
H    0     0                    6.271860e+07 2697108.04  95.7%     -    0s
     0     0 1.1264e+07    0   34 6.2719e+07 1.1264e+07  82.0%     -    0s
H    0     0                    6.254860e+07 1.1264e+07  82.0%     -    0s
H    0     0                    4.214650e+07 1.1264e+07  73.3%     -    0s
     0     0 1.1317e+07    0   19 4.2147e+07 1.1317e+07  73.1%     -    0s
H    0     0                    4.207750e+07 1.1317e+07  73.1%     -    0s
     0     0 1.1392e+07    0   29 4.2078e+07 1.1392e+07  72.9%     -    0s
     0     0 1.1421e+07    0   37 4.2078e+07 1.1421e+07  72.9%     -    0s
     0     0 1.1427e+07    0   37 4.2078e+07 1.1427e+07  72.8%     -    0s
     0     0 1.1427e+07    0   37 4.2078e+07 1.1427e+07  72.8%     -    0s
     0     0 1.1427e+07    0   37 4.2078e+07 1.1427e+07  72.8%     -    0s
H    0     0                    4.197650e+07 1.1427e+07  72.8%     -    0s
H    0     0                    3.169740e+07 1.1427e+07  64.0%     -    0s
     0     2 1.1427e+07    0   37 3.1697e+07 1.1427e+07  64.0%     -    0s
*  402    85               9    3.167180e+07 1.1744e+07  62.9%   8.4    0s
*  540   110              14    3.160280e+07 1.1860e+07  62.5%   7.6    0s

Cutting planes:
  Learned: 5
  Gomory: 2
  Cover: 41
  Implied bound: 10
  Clique: 6
  MIR: 7
  GUB cover: 8

Explored 1177 nodes (7349 simplex iterations) in 0.39 seconds
Thread count was 4 (of 4 available processors)

Optimal solution found (tolerance 1.00e-04)
Best objective 3.160280000000e+07, best bound 3.160280000000e+07, gap 0.0%
k_c1	140000.0
k_c2	40000.0
k_c3	1000000.0
k_c4	110000.0
k_c5	40000.0
k_c6	60000.0
k_c7	110000.0
k_c8	20000.0
k_dN	-0.0
o_1	-0.0
o_2	0.0
o_3	0.0
o_4	-0.0
o_5	-0.0
o_6	-0.0
o_7	-0.0
o_8	-0.0
p_1	-0.0
p_2	0.0
p_3	0.0
p_4	-0.0
p_5	-0.0
p_6	-0.0
p_7	0.0
p_8	0.0
phi_c1	30613.0
phi_c2	8697.000000000015
phi_c3	40259.0
phi_c4	33709.999999999985
phi_c5	14410.000000000022
phi_c6	21413.999999999985
phi_c7	20578.000000000022
phi_c8	16188.999999999985
phi_d0	50000.0
phi_dN	-0.0
tauD_c1	450000.0
tauD_c2	250000.0
tauD_c3	398374.99999999994
tauD_c4	60875.0
tauD_c5	906150.0
tauD_c6	450000.0
tauD_c7	700000.0
tauD_c8	600000.0
tauD_d0	-0.0
tauD_dN	1000000.0
tauS_c1	855000.0
tauS_c2	111050.0
tauS_c3	883600.0
tauS_c4	109250.0
tauS_c5	-0.0
tauS_c6	120250.0
tauS_c7	844950.0
tauS_c8	101150.0
tauS_d0	-0.0
tauS_dN	1000000.0
x_c1_c7	1.0
x_c2_dN	1.0
x_c3_c1	1.0
x_c4_c6	1.0
x_c5_dN	1.0
x_c6_c8	1.0
x_c7_c5	1.0
x_c8_dN	1.0
x_d0_c2	1.0
x_d0_c3	1.0
x_d0_c4	1.0
